p cnf 58 206
-3 1 0
-3 2 0
-1 -2 3 0
5 -3 0
5 4 0
3 -4 -5 0
8 -6 0
8 7 0
6 -7 -8 0
9 -10 0
-9 -10 0
10 -11 -12 0
-10 11 -12 0
10 11 12 0
-10 -11 12 0
-8 12 -13 0
8 -12 -13 0
-8 -12 13 0
8 12 13 0
-14 -13 0
-14 -7 0
13 7 14 0
5 14 -15 0
-5 -14 -15 0
5 -14 15 0
-5 14 15 0
-16 -12 0
-16 4 0
12 -4 16 0
-17 16 0
-17 -8 0
-16 8 17 0
-18 -17 0
-18 2 0
17 -2 18 0
-20 -19 0
-20 6 0
19 -6 20 0
-21 18 0
-21 -20 0
-18 20 21 0
-22 -15 0
-22 21 0
15 -21 22 0
23 -10 0
23 -6 0
10 6 -23 0
-24 -23 0
-24 8 0
23 -8 24 0
-6 -2 -25 0
6 2 -25 0
-6 2 25 0
6 -2 25 0
-26 -24 0
-26 25 0
24 -25 26 0
-28 4 0
-28 6 0
-4 -6 28 0
29 27 0
29 -28 0
-27 28 -29 0
-26 -29 -30 0
26 29 -30 0
-26 29 30 0
26 -29 30 0
31 -27 0
31 -7 0
27 7 -31 0
-32 -31 0
-32 -16 0
31 16 32 0
-31 33 0
31 33 0
32 -33 -34 0
-32 33 -34 0
32 33 34 0
-32 -33 34 0
30 -34 -35 0
-30 34 -35 0
30 34 35 0
-30 -34 35 0
36 -27 0
36 -1 0
27 1 -36 0
-37 -1 0
-37 4 0
1 -4 37 0
-38 37 0
-38 6 0
-37 -6 38 0
-39 38 0
-39 3 0
-38 -3 39 0
39 40 -41 0
-39 -40 -41 0
39 -40 41 0
-39 40 41 0
-42 -36 0
-42 41 0
36 -41 42 0
43 -35 0
43 42 0
35 -42 -43 0
-1 4 -44 0
1 -4 -44 0
-1 -4 44 0
1 4 44 0
-44 2 -45 0
44 -2 -45 0
-44 -2 45 0
44 2 45 0
23 44 -46 0
-23 -44 -46 0
23 -44 46 0
-23 44 46 0
47 37 0
47 -46 0
-37 46 -47 0
47 -10 -48 0
-47 10 -48 0
47 10 48 0
-47 -10 48 0
-49 48 0
-49 -13 0
-48 13 49 0
-50 -11 0
-50 28 0
11 -28 50 0
37 -50 -51 0
-37 50 -51 0
37 50 51 0
-37 -50 51 0
-52 2 0
-52 7 0
-2 -7 52 0
-51 52 -53 0
51 -52 -53 0
-51 -52 53 0
51 52 53 0
-54 53 0
-54 -6 0
-53 6 54 0
-55 49 0
-55 54 0
-49 -54 55 0
56 -45 0
56 -55 0
45 55 -56 0
43 56 -57 0
-43 -56 -57 0
43 -56 57 0
-43 56 57 0
-22 -57 -58 0
22 57 -58 0
-22 57 58 0
22 -57 58 0
5 6 16 32 -11 0
-53 -47 48 -46 0
-45 -11 0
-48 24 2 30 0
2 -53 23 32 -8 -43 0
-30 58 26 -44 0
-21 -16 -2 -26 0
-39 -34 0
57 53 0
21 18 52 -27 -7 0
11 1 15 0
20 12 47 -25 -5 0
12 49 53 -52 44 -14 0
-34 33 -7 -38 0
54 -24 49 -5 0
10 -9 -26 0
-2 -52 32 43 0
-14 55 39 0
22 19 0
7 -31 -27 -10 46 -55 0
17 20 -12 0
-14 -2 -17 43 -26 0
55 53 -29 -13 0
-43 -28 33 -47 55 -14 0
50 41 0
50 -4 -34 22 -24 -35 0
-47 -51 17 6 0
-34 26 -12 2 -32 0
31 39 -37 9 -4 0
-29 -20 -22 -57 17 -7 0
-25 22 35 11 0
-22 24 43 -2 0
-10 -32 20 16 0
-45 21 24 0
-27 -48 36 0
-57 -53 4 -10 0
49 38 -56 -24 20 57 0
7 3 0
33 -9 -25 49 0
-1 55 28 -41 11 14 0
18 -19 54 -23 -58 0
15 -9 39 27 0
27 7 -13 48 -26 -32 0
34 15 36 14 32 -8 0
17 -40 -23 -18 15 0
21 -11 0
5 -37 47 0
58 0
